Academic license - for non-commercial use only
Set parameter TimeLimit to value 7200

Gurobi Optimizer version 7.5.2 build v7.5.2rc1 (linux64)
Copyright (c) 2017, Gurobi Optimization, Inc.

Read LP format model from file flow/la07.lp
Reading time = 0.93 seconds
: 54109 rows, 99006 columns, 2635403 nonzeros
Optimize a model with 54109 rows, 99006 columns and 2635403 nonzeros
Variable types: 0 continuous, 99006 integer (99005 binary)
Coefficient statistics:
  Matrix range     [1e+00, 9e+02]
  Objective range  [1e+00, 1e+00]
  Bounds range     [1e+00, 1e+00]
  RHS range        [1e+00, 1e+00]
Presolve removed 9835 rows and 9657 columns (presolve time = 5s) ...
Presolve removed 10080 rows and 9915 columns
Presolve time: 8.40s
Presolved: 44029 rows, 89091 columns, 2593319 nonzeros
Variable types: 0 continuous, 89091 integer (89090 binary)

Deterministic concurrent LP optimizer: dual simplex and barrier
Showing barrier log only...

Presolve removed 80 rows and 65 columns
Presolved: 43949 rows, 89026 columns, 2593144 nonzeros

Root barrier log...

Elapsed ordering time = 5s
Elapsed ordering time = 10s
Ordering time: 11.24s

Barrier statistics:
 AA' NZ     : 4.407e+06
 Factor NZ  : 1.658e+07 (roughly 200 MBytes of memory)
 Factor Ops : 1.720e+10 (roughly 1 second per iteration)
 Threads    : 1

                  Objective                Residual
Iter       Primal          Dual         Primal    Dual     Compl     Time
   0   1.77944251e+04 -6.60168057e+05  6.49e+04 1.49e-01  7.47e+02    26s
   1   1.54240755e+04 -6.36936877e+05  3.67e+04 1.68e+00  4.22e+02    28s
   2   7.39338307e+03 -6.17997059e+05  7.56e+03 4.90e-13  9.07e+01    30s
   3   2.12623655e+03 -5.56091222e+05  5.76e+02 2.12e-12  9.31e+00    32s
   4   2.14111016e+03 -3.11982053e+05  1.82e+02 1.65e-12  3.20e+00    34s
   5   2.16227214e+03 -1.59606816e+05  7.68e+01 1.75e-12  1.39e+00    37s
   6   2.02917598e+03 -7.46244898e+04  3.91e+01 1.88e-12  6.50e-01    39s
   7   1.54996037e+03 -2.86601889e+04  1.41e+01 1.24e-12  2.50e-01    42s
   8   1.11776093e+03 -1.29654486e+04  5.14e+00 1.59e-12  1.13e-01    44s
   9   9.07538312e+02 -3.48106452e+03  8.89e-01 1.08e-12  3.01e-02    47s
  10   8.36711036e+02 -1.29679110e+03  4.28e-01 5.79e-13  1.34e-02    49s
  11   7.73318763e+02 -2.11551270e+02  2.24e-01 2.90e-13  5.88e-03    51s
  12   7.33301963e+02  1.91981417e+02  1.59e-01 2.27e-13  3.17e-03    54s
  13   7.14355033e+02  4.52246851e+02  1.19e-01 1.47e-13  1.51e-03    57s
  14   6.60819676e+02  5.48946825e+02  3.24e-02 1.39e-13  6.24e-04    60s
  15   6.33648717e+02  5.85816914e+02  8.66e-03 9.10e-14  2.64e-04    62s
  16   6.24789886e+02  5.99508917e+02  4.61e-03 9.41e-14  1.39e-04    65s
  17   6.18412793e+02  6.05842410e+02  1.85e-03 6.57e-14  6.92e-05    67s
  18   6.16516495e+02  6.08655645e+02  1.22e-03 8.85e-14  4.32e-05    69s
  19   6.14876208e+02  6.10057377e+02  7.33e-04 7.93e-14  2.65e-05    72s
  20   6.13209286e+02  6.11018124e+02  2.50e-04 7.87e-14  1.20e-05    74s
  21   6.12408510e+02  6.11912782e+02  5.69e-05 1.05e-13  2.72e-06    77s
  22   6.12208895e+02  6.11987489e+02  1.95e-05 8.05e-14  1.22e-06    79s
  23   6.12121348e+02  6.12062531e+02  4.02e-06 6.80e-14  3.23e-07    82s
  24   6.12096568e+02  6.12083896e+02  3.62e-07 6.88e-14  6.95e-08    85s
  25   6.12093645e+02  6.12091557e+02  5.31e-08 8.66e-14  1.14e-08    88s
  26   6.12093207e+02  6.12092255e+02  1.75e-08 7.82e-14  5.22e-09    90s
  27   6.12093102e+02  6.12092698e+02  9.32e-09 9.02e-14  2.21e-09    92s
  28   6.12093029e+02  6.12092952e+02  1.63e-08 7.47e-14  4.23e-10    94s
  29   6.12093006e+02  6.12092965e+02  3.21e-08 7.78e-14  2.22e-10    97s
  30   6.12093004e+02  6.12092966e+02  3.07e-08 7.98e-14  2.06e-10    99s
  31   6.12092991e+02  6.12092975e+02  1.71e-08 8.62e-14  8.34e-11   101s
  32   6.12092983e+02  6.12092976e+02  3.30e-08 8.14e-14  3.79e-11   104s
  33   6.12092982e+02  6.12092976e+02  3.34e-08 6.55e-14  3.59e-11   106s

Barrier solved model in 33 iterations and 105.73 seconds
Optimal objective 6.12092982e+02


Root crossover log...

   24034 DPushes remaining with DInf 1.0937000e-05               106s
       0 DPushes remaining with DInf 1.4590744e-10               109s

   11693 PPushes remaining with PInf 8.0647335e-05               109s
    1240 PPushes remaining with PInf 0.0000000e+00               112s
       0 PPushes remaining with PInf 0.0000000e+00               113s

  Push phase complete: Pinf 0.0000000e+00, Dinf 1.1232753e-03    113s


Root simplex log...

Iteration    Objective       Primal Inf.    Dual Inf.      Time
   35673    6.1209298e+02   0.000000e+00   1.123275e-03    113s
   35675    6.1209298e+02   0.000000e+00   0.000000e+00    113s
   35675    6.1209298e+02   0.000000e+00   0.000000e+00    113s
Concurrent spin time: 0.00s

Solved with barrier

Root relaxation: objective 6.120930e+02, 35675 iterations, 102.97 seconds
Total elapsed time = 142.01s
Total elapsed time = 170.46s
Total elapsed time = 197.93s
Total elapsed time = 215.60s

    Nodes    |    Current Node    |     Objective Bounds      |     Work
 Expl Unexpl |  Obj  Depth IntInf | Incumbent    BestBd   Gap | It/Node Time

     0     0  612.09298    0 7237          -  612.09298      -     -  236s
     0     0  613.00000    0 9250          -  613.00000      -     - 1188s
     0     0          -    0               -  613.00000      -     - 7200s

Cutting planes:
  Implied bound: 1
  Clique: 6
  MIR: 7
  StrongCG: 9

Explored 1 nodes (1611741 simplex iterations) in 7200.00 seconds
Thread count was 4 (of 4 available processors)

Solution count 0

Time limit reached
Best objective -, best bound 6.130000000000e+02, gap -

Unable to retrieve attribute 'X'

